96
C60F36 - Isomero T (Dados de Difracao de Eletrons/Raio-X)
F  0.498000  3.454400  3.789200
F  2.196900  1.847000  4.588600
F  3.789200  0.498000  3.454400
F  4.588600  2.196900  1.847000
F  3.454400  3.789200  0.498000
F  1.847000  4.588600  2.196900
F -0.462400  5.018200  1.230800
F -1.230800  0.462400  5.018200
F  1.230800 -0.462400  5.018200
F  5.018200 -1.230800  0.462400
F  5.018200  1.230800 -0.462400
F  0.462400  5.018200 -1.230800
F -1.847000  4.588600 -2.196900
F -3.454400  3.789200 -0.498000
F -3.789200 -0.498000  3.454400
F -2.196900 -1.847000  4.588600
F -0.498000 -3.454400  3.789200
F  3.454400 -3.789200 -0.498000
F  4.588600 -2.196900 -1.847000
F  3.789200 -0.498000 -3.454400
F -0.498000  3.454400 -3.789200
F -2.196900  1.847000 -4.588600
F -3.789200  0.498000 -3.454400
F -4.588600  2.196900 -1.847000
F -5.018200  1.230800  0.462400
F -5.018200 -1.230800 -0.462400
F -4.588600 -2.196900  1.847000
F -3.454400 -3.789200  0.498000
F -1.847000 -4.588600  2.196900
F  0.462400 -5.018200  1.230800
F -0.462400 -5.018200 -1.230800
F  1.847000 -4.588600 -2.196900
F  0.498000 -3.454400 -3.789200
F  2.196900 -1.847000 -4.588600
F  1.230800  0.462400 -5.018200
F -1.230800 -0.462400 -5.018200
C  0.798000  2.536200  2.827900
C  1.641100  1.370500  3.425800
C  2.827900  0.798000  2.536200
C  3.425800  1.641100  1.370500
C  2.536200  2.827900  0.798000
C  1.370500  3.425800  1.641100
C  0.002600  3.807800  0.773400
C -0.907700  2.706500  1.181800
C -0.480300  2.000800  2.285800
C -1.181800  0.907700  2.706500
C -0.773400 -0.002600  3.807800
C  0.773400  0.002600  3.807800
C  1.181800 -0.907700  2.706500
C  2.285800 -0.480300  2.000800
C  2.706500 -1.181800  0.907700
C  3.807800 -0.773400 -0.002600
C  3.807800  0.773400  0.002600
C  2.706500  1.181800 -0.907700
C  2.000800  2.285800 -0.480300
C  0.907700  2.706500 -1.181800
C -0.002600  3.807800 -0.773400
C -1.370500  3.425800 -1.641100
C -2.536200  2.827900 -0.798000
C -2.000800  2.285800  0.480300
C -2.706500  1.181800  0.907700
C -2.285800  0.480300  2.000800
C -2.827900 -0.798000  2.536200
C -1.641100 -1.370500  3.425800
C -0.798000 -2.536200  2.827900
C  0.480300 -2.000800  2.285800
C  0.907700 -2.706500  1.181800
C  2.000800 -2.285800  0.480300
C  2.536200 -2.827900 -0.798000
C  3.425800 -1.641100 -1.370500
C  2.827900 -0.798000 -2.536200
C  2.285800  0.480300 -2.000800
C  1.181800  0.907700 -2.706500
C  0.480300  2.000800 -2.285800
C -0.798000  2.536200 -2.827900
C -1.641100  1.370500 -3.425800
C -2.827900  0.798000 -2.536200
C -3.425800  1.641100 -1.370500
C -3.807800  0.773400 -0.002600
C -3.807800 -0.773400  0.002600
C -3.425800 -1.641100  1.370500
C -2.536200 -2.827900  0.798000
C -1.370500 -3.425800  1.641100
C -0.002600 -3.807800  0.773400
C  0.002600 -3.807800 -0.773400
C  1.370500 -3.425800 -1.641100
C  0.798000 -2.536200 -2.827900
C  1.641100 -1.370500 -3.425800
C  0.773400 -0.002600 -3.807800
C -0.773400  0.002600 -3.807800
C -1.181800 -0.907700 -2.706500
C -2.285800 -0.480300 -2.000800
C -2.706500 -1.181800 -0.907700
C -2.000800 -2.285800 -0.480300
C -0.907700 -2.706500 -1.181800
C -0.480300 -2.000800 -2.285800