44
Cluster Co4Cp4 - Simetria S4 aproximada
Co          0.00000        1.70000        0.60000
Co          0.00000       -1.70000        0.60000
Co          1.70000        0.00000       -0.60000
Co         -1.70000        0.00000       -0.60000
C           0.00000        3.80000        0.60000
C           0.71200        3.40000        1.73000
C          -0.71200        3.40000        1.73000
C           1.15200        3.40000       -0.22000
C          -1.15200        3.40000       -0.22000
C           0.00000       -3.80000        0.60000
C           0.71200       -3.40000        1.73000
C          -0.71200       -3.40000        1.73000
C           1.15200       -3.40000       -0.22000
C          -1.15200       -3.40000       -0.22000
C           3.80000        0.00000       -0.60000
C           3.40000        0.71200       -1.73000
C           3.40000       -0.71200       -1.73000
C           3.40000        1.15200        0.22000
C           3.40000       -1.15200        0.22000
C          -3.80000        0.00000       -0.60000
C          -3.40000        0.71200       -1.73000
C          -3.40000       -0.71200       -1.73000
C          -3.40000        1.15200        0.22000
C          -3.40000       -1.15200        0.22000
H           0.00000        4.85000        0.60000
H           1.27000        4.15000        2.61000
H          -1.27000        4.15000        2.61000
H           2.05000        4.15000       -0.85000
H          -2.05000        4.15000       -0.85000
H           0.00000       -4.85000        0.60000
H           1.27000       -4.15000        2.61000
H          -1.27000       -4.15000        2.61000
H           2.05000       -4.15000       -0.85000
H          -2.05000       -4.15000       -0.85000
H           4.85000        0.00000       -0.60000
H           4.15000        1.27000       -2.61000
H           4.15000       -1.27000       -2.61000
H           4.15000        2.05000        0.85000
H           4.15000       -2.05000        0.85000
H          -4.85000        0.00000       -0.60000
H          -4.15000        1.27000       -2.61000
H          -4.15000       -1.27000       -2.61000
H          -4.15000        2.05000        0.85000
H          -4.15000       -2.05000        0.85000