97
Complexo de Fe(III)
Fe 0.000000  0.000000  0.000000
S  1.906700 -0.226100  1.236200
C  2.480000  1.437700  1.370300
C  3.371400  1.950100  0.366300
C  3.821200  3.228100  0.469300
C  3.385200  3.998300  1.615600
C  2.549000  3.522900  2.580300
C  2.088200  2.193500  2.454400
C  3.803300  1.123300 -0.806200
C  4.721900  3.904900 -0.520000
C  2.044100  4.453900  3.721700
C  1.165300  1.623700  3.501000
S -0.226100 -1.906700 -1.236200
C  1.437700 -2.480000 -1.370300
C  1.950100 -3.371400 -0.366300
C  3.228100 -3.821200 -0.469300
C  3.998300 -3.385200 -1.615600
C  3.522900 -2.549000 -2.580300
C  2.193500 -2.088200 -2.454400
C  1.623700 -1.165300 -3.501000
C  4.453900 -2.044100 -3.721700
C  3.904900 -4.721900  0.520000
C  1.123300 -3.803300  0.806200
S -1.906700  0.226100  1.236200
C -2.480000 -1.437700  1.370300
C -3.371400 -1.950100  0.366300
C -3.821200 -3.228100  0.469300
C -3.385200 -3.998300  1.615600
C -2.549000 -3.522900  2.580300
C -2.088200 -2.193500  2.454400
C -1.165300 -1.623700  3.501000
C -2.044100 -4.453900  3.721700
C -4.721900 -3.904900 -0.520000
C -3.803300 -1.123300 -0.806200
S  0.226100  1.906700 -1.236200
C -1.437700  2.480000 -1.370300
C -1.950100  3.371400 -0.366300
C -3.228100  3.821200 -0.469300
C -3.998300  3.385200 -1.615600
C -3.522900  2.549000 -2.580300
C -2.193500  2.088200 -2.454400
C -1.623700  1.165300 -3.501000
C -4.453900  2.044100 -3.721700
C -3.904900  4.721900  0.520000
C -1.123300  3.803300  0.806200
H  3.748200  5.020500  1.712400
H  2.928800  0.828400 -1.384200
H  4.474000  1.707200 -1.434800
H  4.321100  0.233300 -0.451600
H  4.923100  4.923100 -0.190400
H  4.237700  3.928000 -1.495100
H  5.659000  3.355100 -0.593000
H  2.523100  5.428000  3.634200
H  2.291800  4.013000  4.686200
H  0.964400  4.571900  3.643100
H  0.222900  1.337000  3.036600
H  0.978700  2.374100  4.267800
H  1.627600  0.748200  3.954700
H  5.020500 -3.748200 -1.712400
H  1.337000 -0.222900 -3.036600
H  2.374100 -0.978700 -4.267800
H  0.748200 -1.627600 -3.954700
H  5.428000 -2.523100 -3.634200
H  4.571900 -0.964400 -3.643100
H  4.013000 -2.291800 -4.686200
H  4.923100 -4.923100  0.190400
H  3.355100 -5.659000  0.593000
H  3.928000 -4.237700  1.495100
H  0.828400 -2.928800  1.384200
H  1.707200 -4.474000  1.434800
H  0.233300 -4.321100  0.451600
H -3.748200 -5.020500  1.712400
H -0.222900 -1.337000  3.036600
H -0.978700 -2.374100  4.267800
H -1.627600 -0.748200  3.954700
H -2.523100 -5.428000  3.634200
H -2.291800 -4.013000  4.686200
H -0.964400 -4.571900  3.643100
H -4.923100 -4.923100 -0.190400
H -4.237700 -3.928000 -1.495100
H -5.659000 -3.355100 -0.593000
H -2.928800 -0.828400 -1.384200
H -4.474000 -1.707200 -1.434800
H -4.321100 -0.233300 -0.451600
H -5.020500  3.748200 -1.712400
H -1.337000  0.222900 -3.036600
H -2.374100  0.978700 -4.267800
H -0.748200  1.627600 -3.954700
H -5.428000  2.523100 -3.634200
H -4.571900  0.964400 -3.643100
H -4.013000  2.291800 -4.686200
H -4.923100  4.923100  0.190400
H -3.355100  5.659000  0.593000
H -3.928000  4.237700  1.495100
H -0.828400  2.928800  1.384200
H -1.707200  4.474000  1.434800
H -0.233300  4.321100  0.451600