72
Infinitene - C48H24 (Helical Aromatic Loop)
C  1.731200  1.342600  1.265000
H  1.784300  1.441500  2.187600
C  1.908900  2.414200  0.456900
H  2.214200  3.213300  0.822200
C  1.641300  2.345100 -0.925200
C  1.728200  3.511100 -1.720000
H  1.977100  4.319100 -1.333000
C  1.451900  3.453900 -3.037700
H  1.582300  4.210800 -3.561500
C  0.968500  2.275600 -3.643100
C  0.740200  2.279300 -5.037900
H  0.852000  3.065300 -5.521300
C  0.363800  1.159600 -5.669400
H  0.341700  1.143200 -6.598700
C  0.000000  0.000000 -4.939700
C -0.363800 -1.159600 -5.669400
H -0.341700 -1.143200 -6.598700
C -0.740200 -2.279300 -5.037900
H -0.852000 -3.065300 -5.521300
C -0.968500 -2.275600 -3.643100
C -1.451900 -3.453900 -3.037700
H -1.582300 -4.210800 -3.561500
C -1.728200 -3.511100 -1.720000
H -1.977100 -4.319100 -1.333000
C -1.641300 -2.345100 -0.925200
C -1.908900 -2.414200  0.456900
H -2.214200 -3.213300  0.822200
C -1.731200 -1.342600  1.265000
H -1.784300 -1.441500  2.187600
C -1.463900 -0.064700  0.698800
C -1.279400  1.107700  1.523200
C -0.753200  1.092400  2.875900
C  0.000000  0.000000  3.517800
C  0.753200 -1.092400  2.875900
C  1.279400 -1.107700  1.523200
C  1.463900  0.064700  0.698800
C  1.463900 -0.064700 -0.698800
C  1.279400  1.107700 -1.523200
C  0.753200  1.092400 -2.875900
C  0.000000  0.000000 -3.517800
C -0.753200 -1.092400 -2.875900
C -1.279400 -1.107700 -1.523200
C -1.463900  0.064700 -0.698800
C -1.731200  1.342600 -1.265000
H -1.784300  1.441500 -2.187600
C -1.908900  2.414200 -0.456900
H -2.214200  3.213300 -0.822200
C -1.641300  2.345100  0.925200
C -1.728200  3.511100  1.720000
H -1.977100  4.319100  1.333000
C -1.451900  3.453900  3.037700
H -1.582300  4.210800  3.561500
C -0.968500  2.275600  3.643100
C -0.740200  2.279300  5.037900
H -0.852000  3.065300  5.521300
C -0.363800  1.159600  5.669400
H -0.341700  1.143200  6.598700
C  0.000000  0.000000  4.939700
C  0.363800 -1.159600  5.669400
H  0.341700 -1.143200  6.598700
C  0.740200 -2.279300  5.037900
H  0.852000 -3.065300  5.521300
C  0.968500 -2.275600  3.643100
C  1.451900 -3.453900  3.037700
H  1.582300 -4.210800  3.561500
C  1.728200 -3.511100  1.720000
H  1.977100 -4.319100  1.333000
C  1.641300 -2.345100  0.925200
C  1.908900 -2.414200 -0.456900
H  2.214200 -3.213300 -0.822200
C  1.731200 -1.342600 -1.265000
H  1.784300 -1.441500 -2.187600