28
1,3,5,7-tetramethyl-cyclooctatetraeno
C          1.21000        1.21000        0.45000
C          0.00000        1.71000       -0.45000
C         -1.21000        1.21000        0.45000
C         -1.71000        0.00000       -0.45000
C         -1.21000       -1.21000        0.45000
C          0.00000       -1.71000       -0.45000
C          1.21000       -1.21000        0.45000
C          1.71000        0.00000       -0.45000
C          2.45000        2.05000        0.65000
C         -2.45000        2.05000        0.65000
C         -2.45000       -2.05000        0.65000
C          2.45000       -2.05000        0.65000
H          0.00000        2.60000       -1.10000
H         -2.60000        0.00000       -1.10000
H          0.00000       -2.60000       -1.10000
H          2.60000        0.00000       -1.10000
H          2.15000        3.05000        0.95000
H          3.10000        1.65000        1.45000
H          3.05000        2.15000       -0.25000
H         -2.15000        3.05000        0.95000
H         -3.10000        1.65000        1.45000
H         -3.05000        2.15000       -0.25000
H         -2.15000       -3.05000        0.95000
H         -3.10000       -1.65000        1.45000
H         -3.05000       -2.15000       -0.25000
H          2.15000       -3.05000        0.95000
H          3.10000       -1.65000        1.45000
H          3.05000       -2.15000       -0.25000